/*********************************************
 * OPL 12.6.0.0 Data
 * Author: Adrian Rodriguez Bazaga, Pau Rodriguez Esmerats
 * Creation Date: 23/11/2017 at 07:17:40
 *********************************************/

nNurses=99;
maxConsec=2;
maxPresence=7;
maxHours=5;
minHours=1;
demand= [22 23 36 33 23 36 33 24 25 12 1 2 1 4 1 3 0 3 0 2 20 34 14 32  ];
